c 0.011943817138671875 (encode time in sec)
p cnf 219 1048
1 2 3 11 0
1 2 -3 10 0
1 -2 3 5 0
1 -2 -3 4 0
-1 2 3 6 0
-1 2 -3 7 0
-1 -2 3 8 0
-1 -2 -3 9 0
12 13 14 15 0
12 13 -14 16 0
12 -13 14 17 0
12 -13 -14 19 0
-12 13 14 18 0
-12 13 -14 20 0
-12 -13 14 21 0
-12 -13 -14 22 0
23 24 25 26 0
23 24 -25 27 0
23 -24 25 28 0
23 -24 -25 29 0
-23 24 25 30 0
-23 24 -25 27 0
-23 -24 25 32 0
-23 -24 -25 31 0
33 34 35 1 2 3 12 13 14 36 0
33 34 35 1 2 3 12 13 -14 37 0
33 34 35 1 2 3 12 -13 14 39 0
33 34 35 1 2 3 12 -13 -14 0
33 34 35 1 2 3 -12 13 14 0
33 34 35 1 2 3 -12 13 -14 0
33 34 35 1 2 3 -12 -13 14 36 0
33 34 35 1 2 3 -12 -13 -14 36 0
33 34 35 1 2 -3 12 13 14 37 0
33 34 35 1 2 -3 12 13 -14 38 0
33 34 35 1 2 -3 12 -13 14 74 0
33 34 35 1 2 -3 12 -13 -14 0
33 34 35 1 2 -3 -12 13 14 0
33 34 35 1 2 -3 -12 13 -14 0
33 34 35 1 2 -3 -12 -13 14 0
33 34 35 1 2 -3 -12 -13 -14 36 0
33 34 35 1 -2 3 12 13 14 38 0
33 34 35 1 -2 3 12 13 -14 0
33 34 35 1 -2 3 12 -13 14 0
33 34 35 1 -2 3 12 -13 -14 0
33 34 35 1 -2 3 -12 13 14 0
33 34 35 1 -2 3 -12 13 -14 0
33 34 35 1 -2 3 -12 -13 14 0
33 34 35 1 -2 3 -12 -13 -14 0
33 34 35 1 -2 -3 12 13 14 41 0
33 34 35 1 -2 -3 12 13 -14 95 0
33 34 35 1 -2 -3 12 -13 14 0
33 34 35 1 -2 -3 12 -13 -14 0
33 34 35 1 -2 -3 -12 13 14 0
33 34 35 1 -2 -3 -12 13 -14 0
33 34 35 1 -2 -3 -12 -13 14 0
33 34 35 1 -2 -3 -12 -13 -14 0
33 34 35 -1 2 3 12 13 14 0
33 34 35 -1 2 3 12 13 -14 0
33 34 35 -1 2 3 12 -13 14 0
33 34 35 -1 2 3 12 -13 -14 0
33 34 35 -1 2 3 -12 13 14 0
33 34 35 -1 2 3 -12 13 -14 0
33 34 35 -1 2 3 -12 -13 14 0
33 34 35 -1 2 3 -12 -13 -14 0
33 34 35 -1 2 -3 12 13 14 0
33 34 35 -1 2 -3 12 13 -14 0
33 34 35 -1 2 -3 12 -13 14 0
33 34 35 -1 2 -3 12 -13 -14 0
33 34 35 -1 2 -3 -12 13 14 0
33 34 35 -1 2 -3 -12 13 -14 0
33 34 35 -1 2 -3 -12 -13 14 0
33 34 35 -1 2 -3 -12 -13 -14 36 0
33 34 35 -1 -2 3 12 13 14 36 0
33 34 35 -1 -2 3 12 13 -14 0
33 34 35 -1 -2 3 12 -13 14 0
33 34 35 -1 -2 3 12 -13 -14 0
33 34 35 -1 -2 3 -12 13 14 0
33 34 35 -1 -2 3 -12 13 -14 0
33 34 35 -1 -2 3 -12 -13 14 0
33 34 35 -1 -2 3 -12 -13 -14 36 0
33 34 35 -1 -2 -3 12 13 14 36 0
33 34 35 -1 -2 -3 12 13 -14 0
33 34 35 -1 -2 -3 12 -13 14 0
33 34 35 -1 -2 -3 12 -13 -14 0
33 34 35 -1 -2 -3 -12 13 14 0
33 34 35 -1 -2 -3 -12 13 -14 36 0
33 34 35 -1 -2 -3 -12 -13 14 36 0
33 34 35 -1 -2 -3 -12 -13 -14 36 0
33 34 -35 1 2 3 12 13 14 36 0
33 34 -35 1 2 3 12 13 -14 0
33 34 -35 1 2 3 12 -13 14 39 0
33 34 -35 1 2 3 12 -13 -14 37 0
33 34 -35 1 2 3 -12 13 14 38 0
33 34 -35 1 2 3 -12 13 -14 0
33 34 -35 1 2 3 -12 -13 14 36 0
33 34 -35 1 2 3 -12 -13 -14 36 0
33 34 -35 1 2 -3 12 13 14 0
33 34 -35 1 2 -3 12 13 -14 42 0
33 34 -35 1 2 -3 12 -13 14 43 0
33 34 -35 1 2 -3 12 -13 -14 76 0
33 34 -35 1 2 -3 -12 13 14 0
33 34 -35 1 2 -3 -12 13 -14 0
33 34 -35 1 2 -3 -12 -13 14 0
33 34 -35 1 2 -3 -12 -13 -14 36 0
33 34 -35 1 -2 3 12 13 14 42 0
33 34 -35 1 -2 3 12 13 -14 37 0
33 34 -35 1 -2 3 12 -13 14 86 0
33 34 -35 1 -2 3 12 -13 -14 0
33 34 -35 1 -2 3 -12 13 14 0
33 34 -35 1 -2 3 -12 13 -14 0
33 34 -35 1 -2 3 -12 -13 14 0
33 34 -35 1 -2 3 -12 -13 -14 0
33 34 -35 1 -2 -3 12 13 14 41 0
33 34 -35 1 -2 -3 12 13 -14 73 0
33 34 -35 1 -2 -3 12 -13 14 44 0
33 34 -35 1 -2 -3 12 -13 -14 0
33 34 -35 1 -2 -3 -12 13 14 0
33 34 -35 1 -2 -3 -12 13 -14 0
33 34 -35 1 -2 -3 -12 -13 14 0
33 34 -35 1 -2 -3 -12 -13 -14 0
33 34 -35 -1 2 3 12 13 14 93 0
33 34 -35 -1 2 3 12 13 -14 70 0
33 34 -35 -1 2 3 12 -13 14 0
33 34 -35 -1 2 3 12 -13 -14 0
33 34 -35 -1 2 3 -12 13 14 0
33 34 -35 -1 2 3 -12 13 -14 0
33 34 -35 -1 2 3 -12 -13 14 0
33 34 -35 -1 2 3 -12 -13 -14 0
33 34 -35 -1 2 -3 12 13 14 0
33 34 -35 -1 2 -3 12 13 -14 0
33 34 -35 -1 2 -3 12 -13 14 0
33 34 -35 -1 2 -3 12 -13 -14 0
33 34 -35 -1 2 -3 -12 13 14 0
33 34 -35 -1 2 -3 -12 13 -14 0
33 34 -35 -1 2 -3 -12 -13 14 0
33 34 -35 -1 2 -3 -12 -13 -14 36 0
33 34 -35 -1 -2 3 12 13 14 36 0
33 34 -35 -1 -2 3 12 13 -14 0
33 34 -35 -1 -2 3 12 -13 14 0
33 34 -35 -1 -2 3 12 -13 -14 0
33 34 -35 -1 -2 3 -12 13 14 0
33 34 -35 -1 -2 3 -12 13 -14 0
33 34 -35 -1 -2 3 -12 -13 14 0
33 34 -35 -1 -2 3 -12 -13 -14 36 0
33 34 -35 -1 -2 -3 12 13 14 36 0
33 34 -35 -1 -2 -3 12 13 -14 0
33 34 -35 -1 -2 -3 12 -13 14 0
33 34 -35 -1 -2 -3 12 -13 -14 0
33 34 -35 -1 -2 -3 -12 13 14 0
33 34 -35 -1 -2 -3 -12 13 -14 36 0
33 34 -35 -1 -2 -3 -12 -13 14 36 0
33 34 -35 -1 -2 -3 -12 -13 -14 36 0
33 -34 35 1 2 3 12 13 14 36 0
33 -34 35 1 2 3 12 13 -14 0
33 -34 35 1 2 3 12 -13 14 0
33 -34 35 1 2 3 12 -13 -14 0
33 -34 35 1 2 3 -12 13 14 39 0
33 -34 35 1 2 3 -12 13 -14 37 0
33 -34 35 1 2 3 -12 -13 14 36 0
33 -34 35 1 2 3 -12 -13 -14 36 0
33 -34 35 1 2 -3 12 13 14 0
33 -34 35 1 2 -3 12 13 -14 0
33 -34 35 1 2 -3 12 -13 14 45 0
33 -34 35 1 2 -3 12 -13 -14 87 0
33 -34 35 1 2 -3 -12 13 14 75 0
33 -34 35 1 2 -3 -12 13 -14 0
33 -34 35 1 2 -3 -12 -13 14 0
33 -34 35 1 2 -3 -12 -13 -14 36 0
33 -34 35 1 -2 3 12 13 14 0
33 -34 35 1 -2 3 12 13 -14 0
33 -34 35 1 -2 3 12 -13 14 59 0
33 -34 35 1 -2 3 12 -13 -14 96 0
33 -34 35 1 -2 3 -12 13 14 85 0
33 -34 35 1 -2 3 -12 13 -14 0
33 -34 35 1 -2 3 -12 -13 14 0
33 -34 35 1 -2 3 -12 -13 -14 0
33 -34 35 1 -2 -3 12 13 14 75 0
33 -34 35 1 -2 -3 12 13 -14 55 0
33 -34 35 1 -2 -3 12 -13 14 46 0
33 -34 35 1 -2 -3 12 -13 -14 58 0
33 -34 35 1 -2 -3 -12 13 14 0
33 -34 35 1 -2 -3 -12 13 -14 0
33 -34 35 1 -2 -3 -12 -13 14 0
33 -34 35 1 -2 -3 -12 -13 -14 0
33 -34 35 -1 2 3 12 13 14 69 0
33 -34 35 -1 2 3 12 13 -14 47 0
33 -34 35 -1 2 3 12 -13 14 77 0
33 -34 35 -1 2 3 12 -13 -14 88 0
33 -34 35 -1 2 3 -12 13 14 0
33 -34 35 -1 2 3 -12 13 -14 0
33 -34 35 -1 2 3 -12 -13 14 0
33 -34 35 -1 2 3 -12 -13 -14 0
33 -34 35 -1 2 -3 12 13 14 37 0
33 -34 35 -1 2 -3 12 13 -14 41 0
33 -34 35 -1 2 -3 12 -13 14 0
33 -34 35 -1 2 -3 12 -13 -14 0
33 -34 35 -1 2 -3 -12 13 14 0
33 -34 35 -1 2 -3 -12 13 -14 0
33 -34 35 -1 2 -3 -12 -13 14 0
33 -34 35 -1 2 -3 -12 -13 -14 36 0
33 -34 35 -1 -2 3 12 13 14 36 0
33 -34 35 -1 -2 3 12 13 -14 0
33 -34 35 -1 -2 3 12 -13 14 0
33 -34 35 -1 -2 3 12 -13 -14 0
33 -34 35 -1 -2 3 -12 13 14 0
33 -34 35 -1 -2 3 -12 13 -14 0
33 -34 35 -1 -2 3 -12 -13 14 0
33 -34 35 -1 -2 3 -12 -13 -14 36 0
33 -34 35 -1 -2 -3 12 13 14 36 0
33 -34 35 -1 -2 -3 12 13 -14 0
33 -34 35 -1 -2 -3 12 -13 14 0
33 -34 35 -1 -2 -3 12 -13 -14 0
33 -34 35 -1 -2 -3 -12 13 14 0
33 -34 35 -1 -2 -3 -12 13 -14 36 0
33 -34 35 -1 -2 -3 -12 -13 14 36 0
33 -34 35 -1 -2 -3 -12 -13 -14 36 0
33 -34 -35 1 2 3 12 13 14 36 0
33 -34 -35 1 2 3 12 13 -14 0
33 -34 -35 1 2 3 12 -13 14 0
33 -34 -35 1 2 3 12 -13 -14 0
33 -34 -35 1 2 3 -12 13 14 38 0
33 -34 -35 1 2 3 -12 13 -14 0
33 -34 -35 1 2 3 -12 -13 14 36 0
33 -34 -35 1 2 3 -12 -13 -14 36 0
33 -34 -35 1 2 -3 12 13 14 0
33 -34 -35 1 2 -3 12 13 -14 0
33 -34 -35 1 2 -3 12 -13 14 0
33 -34 -35 1 2 -3 12 -13 -14 76 0
33 -34 -35 1 2 -3 -12 13 14 82 0
33 -34 -35 1 2 -3 -12 13 -14 41 0
33 -34 -35 1 2 -3 -12 -13 14 0
33 -34 -35 1 2 -3 -12 -13 -14 36 0
33 -34 -35 1 -2 3 12 13 14 0
33 -34 -35 1 -2 3 12 13 -14 0
33 -34 -35 1 -2 3 12 -13 14 54 0
33 -34 -35 1 -2 3 12 -13 -14 96 0
33 -34 -35 1 -2 3 -12 13 14 83 0
33 -34 -35 1 -2 3 -12 13 -14 76 0
33 -34 -35 1 -2 3 -12 -13 14 0
33 -34 -35 1 -2 3 -12 -13 -14 0
33 -34 -35 1 -2 -3 12 13 14 0
33 -34 -35 1 -2 -3 12 13 -14 95 0
33 -34 -35 1 -2 -3 12 -13 14 48 0
33 -34 -35 1 -2 -3 12 -13 -14 49 0
33 -34 -35 1 -2 -3 -12 13 14 67 0
33 -34 -35 1 -2 -3 -12 13 -14 0
33 -34 -35 1 -2 -3 -12 -13 14 0
33 -34 -35 1 -2 -3 -12 -13 -14 0
33 -34 -35 -1 2 3 12 13 14 0
33 -34 -35 -1 2 3 12 13 -14 79 0
33 -34 -35 -1 2 3 12 -13 14 64 0
33 -34 -35 -1 2 3 12 -13 -14 71 0
33 -34 -35 -1 2 3 -12 13 14 97 0
33 -34 -35 -1 2 3 -12 13 -14 0
33 -34 -35 -1 2 3 -12 -13 14 0
33 -34 -35 -1 2 3 -12 -13 -14 0
33 -34 -35 -1 2 -3 12 13 14 0
33 -34 -35 -1 2 -3 12 13 -14 56 0
33 -34 -35 -1 2 -3 12 -13 14 39 0
33 -34 -35 -1 2 -3 12 -13 -14 98 0
33 -34 -35 -1 2 -3 -12 13 14 0
33 -34 -35 -1 2 -3 -12 13 -14 0
33 -34 -35 -1 2 -3 -12 -13 14 0
33 -34 -35 -1 2 -3 -12 -13 -14 36 0
33 -34 -35 -1 -2 3 12 13 14 36 0
33 -34 -35 -1 -2 3 12 13 -14 90 0
33 -34 -35 -1 -2 3 12 -13 14 90 0
33 -34 -35 -1 -2 3 12 -13 -14 0
33 -34 -35 -1 -2 3 -12 13 14 0
33 -34 -35 -1 -2 3 -12 13 -14 0
33 -34 -35 -1 -2 3 -12 -13 14 0
33 -34 -35 -1 -2 3 -12 -13 -14 36 0
33 -34 -35 -1 -2 -3 12 13 14 36 0
33 -34 -35 -1 -2 -3 12 13 -14 37 0
33 -34 -35 -1 -2 -3 12 -13 14 0
33 -34 -35 -1 -2 -3 12 -13 -14 0
33 -34 -35 -1 -2 -3 -12 13 14 0
33 -34 -35 -1 -2 -3 -12 13 -14 36 0
33 -34 -35 -1 -2 -3 -12 -13 14 36 0
33 -34 -35 -1 -2 -3 -12 -13 -14 36 0
-33 34 35 1 2 3 12 13 14 36 0
-33 34 35 1 2 3 12 13 -14 0
-33 34 35 1 2 3 12 -13 14 0
-33 34 35 1 2 3 12 -13 -14 0
-33 34 35 1 2 3 -12 13 14 0
-33 34 35 1 2 3 -12 13 -14 0
-33 34 35 1 2 3 -12 -13 14 36 0
-33 34 35 1 2 3 -12 -13 -14 36 0
-33 34 35 1 2 -3 12 13 14 0
-33 34 35 1 2 -3 12 13 -14 0
-33 34 35 1 2 -3 12 -13 14 0
-33 34 35 1 2 -3 12 -13 -14 0
-33 34 35 1 2 -3 -12 13 14 0
-33 34 35 1 2 -3 -12 13 -14 41 0
-33 34 35 1 2 -3 -12 -13 14 39 0
-33 34 35 1 2 -3 -12 -13 -14 36 0
-33 34 35 1 -2 3 12 13 14 0
-33 34 35 1 -2 3 12 13 -14 0
-33 34 35 1 -2 3 12 -13 14 0
-33 34 35 1 -2 3 12 -13 -14 78 0
-33 34 35 1 -2 3 -12 13 14 68 0
-33 34 35 1 -2 3 -12 13 -14 100 0
-33 34 35 1 -2 3 -12 -13 14 102 0
-33 34 35 1 -2 3 -12 -13 -14 0
-33 34 35 1 -2 -3 12 13 14 0
-33 34 35 1 -2 -3 12 13 -14 0
-33 34 35 1 -2 -3 12 -13 14 44 0
-33 34 35 1 -2 -3 12 -13 -14 58 0
-33 34 35 1 -2 -3 -12 13 14 94 0
-33 34 35 1 -2 -3 -12 13 -14 50 0
-33 34 35 1 -2 -3 -12 -13 14 60 0
-33 34 35 1 -2 -3 -12 -13 -14 0
-33 34 35 -1 2 3 12 13 14 0
-33 34 35 -1 2 3 12 13 -14 0
-33 34 35 -1 2 3 12 -13 14 89 0
-33 34 35 -1 2 3 12 -13 -14 101 0
-33 34 35 -1 2 3 -12 13 14 91 0
-33 34 35 -1 2 3 -12 13 -14 0
-33 34 35 -1 2 3 -12 -13 14 0
-33 34 35 -1 2 3 -12 -13 -14 0
-33 34 35 -1 2 -3 12 13 14 0
-33 34 35 -1 2 -3 12 13 -14 0
-33 34 35 -1 2 -3 12 -13 14 39 0
-33 34 35 -1 2 -3 12 -13 -14 65 0
-33 34 35 -1 2 -3 -12 13 14 36 0
-33 34 35 -1 2 -3 -12 13 -14 0
-33 34 35 -1 2 -3 -12 -13 14 0
-33 34 35 -1 2 -3 -12 -13 -14 36 0
-33 34 35 -1 -2 3 12 13 14 36 0
-33 34 35 -1 -2 3 12 13 -14 66 0
-33 34 35 -1 -2 3 12 -13 14 66 0
-33 34 35 -1 -2 3 12 -13 -14 0
-33 34 35 -1 -2 3 -12 13 14 0
-33 34 35 -1 -2 3 -12 13 -14 0
-33 34 35 -1 -2 3 -12 -13 14 0
-33 34 35 -1 -2 3 -12 -13 -14 36 0
-33 34 35 -1 -2 -3 12 13 14 36 0
-33 34 35 -1 -2 -3 12 13 -14 0
-33 34 35 -1 -2 -3 12 -13 14 0
-33 34 35 -1 -2 -3 12 -13 -14 0
-33 34 35 -1 -2 -3 -12 13 14 0
-33 34 35 -1 -2 -3 -12 13 -14 36 0
-33 34 35 -1 -2 -3 -12 -13 14 36 0
-33 34 35 -1 -2 -3 -12 -13 -14 36 0
-33 34 -35 1 2 3 12 13 14 36 0
-33 34 -35 1 2 3 12 13 -14 0
-33 34 -35 1 2 3 12 -13 14 0
-33 34 -35 1 2 3 12 -13 -14 0
-33 34 -35 1 2 3 -12 13 14 0
-33 34 -35 1 2 3 -12 13 -14 0
-33 34 -35 1 2 3 -12 -13 14 36 0
-33 34 -35 1 2 3 -12 -13 -14 36 0
-33 34 -35 1 2 -3 12 13 14 0
-33 34 -35 1 2 -3 12 13 -14 0
-33 34 -35 1 2 -3 12 -13 14 0
-33 34 -35 1 2 -3 12 -13 -14 0
-33 34 -35 1 2 -3 -12 13 14 0
-33 34 -35 1 2 -3 -12 13 -14 75 0
-33 34 -35 1 2 -3 -12 -13 14 39 0
-33 34 -35 1 2 -3 -12 -13 -14 36 0
-33 34 -35 1 -2 3 12 13 14 0
-33 34 -35 1 -2 3 12 13 -14 0
-33 34 -35 1 -2 3 12 -13 14 0
-33 34 -35 1 -2 3 12 -13 -14 0
-33 34 -35 1 -2 3 -12 13 14 61 0
-33 34 -35 1 -2 3 -12 13 -14 38 0
-33 34 -35 1 -2 3 -12 -13 14 45 0
-33 34 -35 1 -2 3 -12 -13 -14 90 0
-33 34 -35 1 -2 -3 12 13 14 0
-33 34 -35 1 -2 -3 12 13 -14 0
-33 34 -35 1 -2 -3 12 -13 14 0
-33 34 -35 1 -2 -3 12 -13 -14 51 0
-33 34 -35 1 -2 -3 -12 13 14 99 0
-33 34 -35 1 -2 -3 -12 13 -14 57 0
-33 34 -35 1 -2 -3 -12 -13 14 103 0
-33 34 -35 1 -2 -3 -12 -13 -14 0
-33 34 -35 -1 2 3 12 13 14 0
-33 34 -35 -1 2 3 12 13 -14 0
-33 34 -35 -1 2 3 12 -13 14 0
-33 34 -35 -1 2 3 12 -13 -14 62 0
-33 34 -35 -1 2 3 -12 13 14 80 0
-33 34 -35 -1 2 3 -12 13 -14 53 0
-33 34 -35 -1 2 3 -12 -13 14 63 0
-33 34 -35 -1 2 3 -12 -13 -14 0
-33 34 -35 -1 2 -3 12 13 14 0
-33 34 -35 -1 2 -3 12 13 -14 0
-33 34 -35 -1 2 -3 12 -13 14 0
-33 34 -35 -1 2 -3 12 -13 -14 52 0
-33 34 -35 -1 2 -3 -12 13 14 69 0
-33 34 -35 -1 2 -3 -12 13 -14 38 0
-33 34 -35 -1 2 -3 -12 -13 14 0
-33 34 -35 -1 2 -3 -12 -13 -14 36 0
-33 34 -35 -1 -2 3 12 13 14 36 0
-33 34 -35 -1 -2 3 12 13 -14 0
-33 34 -35 -1 -2 3 12 -13 14 0
-33 34 -35 -1 -2 3 12 -13 -14 37 0
-33 34 -35 -1 -2 3 -12 13 14 39 0
-33 34 -35 -1 -2 3 -12 13 -14 0
-33 34 -35 -1 -2 3 -12 -13 14 0
-33 34 -35 -1 -2 3 -12 -13 -14 36 0
-33 34 -35 -1 -2 -3 12 13 14 36 0
-33 34 -35 -1 -2 -3 12 13 -14 0
-33 34 -35 -1 -2 -3 12 -13 14 37 0
-33 34 -35 -1 -2 -3 12 -13 -14 0
-33 34 -35 -1 -2 -3 -12 13 14 0
-33 34 -35 -1 -2 -3 -12 13 -14 36 0
-33 34 -35 -1 -2 -3 -12 -13 14 36 0
-33 34 -35 -1 -2 -3 -12 -13 -14 36 0
-33 -34 35 1 2 3 12 13 14 36 0
-33 -34 35 1 2 3 12 13 -14 0
-33 -34 35 1 2 3 12 -13 14 0
-33 -34 35 1 2 3 12 -13 -14 0
-33 -34 35 1 2 3 -12 13 14 0
-33 -34 35 1 2 3 -12 13 -14 0
-33 -34 35 1 2 3 -12 -13 14 36 0
-33 -34 35 1 2 3 -12 -13 -14 36 0
-33 -34 35 1 2 -3 12 13 14 0
-33 -34 35 1 2 -3 12 13 -14 0
-33 -34 35 1 2 -3 12 -13 14 0
-33 -34 35 1 2 -3 12 -13 -14 0
-33 -34 35 1 2 -3 -12 13 14 0
-33 -34 35 1 2 -3 -12 13 -14 0
-33 -34 35 1 2 -3 -12 -13 14 0
-33 -34 35 1 2 -3 -12 -13 -14 36 0
-33 -34 35 1 -2 3 12 13 14 0
-33 -34 35 1 -2 3 12 13 -14 0
-33 -34 35 1 -2 3 12 -13 14 0
-33 -34 35 1 -2 3 12 -13 -14 0
-33 -34 35 1 -2 3 -12 13 14 0
-33 -34 35 1 -2 3 -12 13 -14 0
-33 -34 35 1 -2 3 -12 -13 14 45 0
-33 -34 35 1 -2 3 -12 -13 -14 90 0
-33 -34 35 1 -2 -3 12 13 14 0
-33 -34 35 1 -2 -3 12 13 -14 0
-33 -34 35 1 -2 -3 12 -13 14 0
-33 -34 35 1 -2 -3 12 -13 -14 0
-33 -34 35 1 -2 -3 -12 13 14 0
-33 -34 35 1 -2 -3 -12 13 -14 44 0
-33 -34 35 1 -2 -3 -12 -13 14 103 0
-33 -34 35 1 -2 -3 -12 -13 -14 69 0
-33 -34 35 -1 2 3 12 13 14 0
-33 -34 35 -1 2 3 12 13 -14 0
-33 -34 35 -1 2 3 12 -13 14 0
-33 -34 35 -1 2 3 12 -13 -14 0
-33 -34 35 -1 2 3 -12 13 14 0
-33 -34 35 -1 2 3 -12 13 -14 81 0
-33 -34 35 -1 2 3 -12 -13 14 66 0
-33 -34 35 -1 2 3 -12 -13 -14 56 0
-33 -34 35 -1 2 -3 12 13 14 0
-33 -34 35 -1 2 -3 12 13 -14 0
-33 -34 35 -1 2 -3 12 -13 14 0
-33 -34 35 -1 2 -3 12 -13 -14 0
-33 -34 35 -1 2 -3 -12 13 14 92 0
-33 -34 35 -1 2 -3 -12 13 -14 57 0
-33 -34 35 -1 2 -3 -12 -13 14 84 0
-33 -34 35 -1 2 -3 -12 -13 -14 36 0
-33 -34 35 -1 -2 3 12 13 14 36 0
-33 -34 35 -1 -2 3 12 13 -14 0
-33 -34 35 -1 -2 3 12 -13 14 0
-33 -34 35 -1 -2 3 12 -13 -14 0
-33 -34 35 -1 -2 3 -12 13 14 48 0
-33 -34 35 -1 -2 3 -12 13 -14 41 0
-33 -34 35 -1 -2 3 -12 -13 14 39 0
-33 -34 35 -1 -2 3 -12 -13 -14 36 0
-33 -34 35 -1 -2 -3 12 13 14 36 0
-33 -34 35 -1 -2 -3 12 13 -14 0
-33 -34 35 -1 -2 -3 12 -13 14 0
-33 -34 35 -1 -2 -3 12 -13 -14 37 0
-33 -34 35 -1 -2 -3 -12 13 14 39 0
-33 -34 35 -1 -2 -3 -12 13 -14 36 0
-33 -34 35 -1 -2 -3 -12 -13 14 36 0
-33 -34 35 -1 -2 -3 -12 -13 -14 36 0
-33 -34 -35 1 2 3 12 13 14 36 0
-33 -34 -35 1 2 3 12 13 -14 0
-33 -34 -35 1 2 3 12 -13 14 0
-33 -34 -35 1 2 3 12 -13 -14 0
-33 -34 -35 1 2 3 -12 13 14 0
-33 -34 -35 1 2 3 -12 13 -14 0
-33 -34 -35 1 2 3 -12 -13 14 36 0
-33 -34 -35 1 2 3 -12 -13 -14 36 0
-33 -34 -35 1 2 -3 12 13 14 0
-33 -34 -35 1 2 -3 12 13 -14 0
-33 -34 -35 1 2 -3 12 -13 14 0
-33 -34 -35 1 2 -3 12 -13 -14 0
-33 -34 -35 1 2 -3 -12 13 14 0
-33 -34 -35 1 2 -3 -12 13 -14 0
-33 -34 -35 1 2 -3 -12 -13 14 0
-33 -34 -35 1 2 -3 -12 -13 -14 36 0
-33 -34 -35 1 -2 3 12 13 14 0
-33 -34 -35 1 -2 3 12 13 -14 0
-33 -34 -35 1 -2 3 12 -13 14 0
-33 -34 -35 1 -2 3 12 -13 -14 0
-33 -34 -35 1 -2 3 -12 13 14 0
-33 -34 -35 1 -2 3 -12 13 -14 0
-33 -34 -35 1 -2 3 -12 -13 14 0
-33 -34 -35 1 -2 3 -12 -13 -14 90 0
-33 -34 -35 1 -2 -3 12 13 14 0
-33 -34 -35 1 -2 -3 12 13 -14 0
-33 -34 -35 1 -2 -3 12 -13 14 0
-33 -34 -35 1 -2 -3 12 -13 -14 0
-33 -34 -35 1 -2 -3 -12 13 14 0
-33 -34 -35 1 -2 -3 -12 13 -14 0
-33 -34 -35 1 -2 -3 -12 -13 14 0
-33 -34 -35 1 -2 -3 -12 -13 -14 93 0
-33 -34 -35 -1 2 3 12 13 14 0
-33 -34 -35 -1 2 3 12 13 -14 0
-33 -34 -35 -1 2 3 12 -13 14 0
-33 -34 -35 -1 2 3 12 -13 -14 0
-33 -34 -35 -1 2 3 -12 13 14 0
-33 -34 -35 -1 2 3 -12 13 -14 0
-33 -34 -35 -1 2 3 -12 -13 14 38 0
-33 -34 -35 -1 2 3 -12 -13 -14 41 0
-33 -34 -35 -1 2 -3 12 13 14 0
-33 -34 -35 -1 2 -3 12 13 -14 0
-33 -34 -35 -1 2 -3 12 -13 14 0
-33 -34 -35 -1 2 -3 12 -13 -14 0
-33 -34 -35 -1 2 -3 -12 13 14 0
-33 -34 -35 -1 2 -3 -12 13 -14 36 0
-33 -34 -35 -1 2 -3 -12 -13 14 72 0
-33 -34 -35 -1 2 -3 -12 -13 -14 36 0
-33 -34 -35 -1 -2 3 12 13 14 36 0
-33 -34 -35 -1 -2 3 12 13 -14 0
-33 -34 -35 -1 -2 3 12 -13 14 0
-33 -34 -35 -1 -2 3 12 -13 -14 0
-33 -34 -35 -1 -2 3 -12 13 14 36 0
-33 -34 -35 -1 -2 3 -12 13 -14 56 0
-33 -34 -35 -1 -2 3 -12 -13 14 39 0
-33 -34 -35 -1 -2 3 -12 -13 -14 36 0
-33 -34 -35 -1 -2 -3 12 13 14 36 0
-33 -34 -35 -1 -2 -3 12 13 -14 0
-33 -34 -35 -1 -2 -3 12 -13 14 0
-33 -34 -35 -1 -2 -3 12 -13 -14 0
-33 -34 -35 -1 -2 -3 -12 13 14 39 0
-33 -34 -35 -1 -2 -3 -12 13 -14 36 0
-33 -34 -35 -1 -2 -3 -12 -13 14 36 0
-33 -34 -35 -1 -2 -3 -12 -13 -14 36 0
104 105 106 23 24 25 33 34 35 107 0
104 105 106 23 24 25 33 34 -35 107 0
104 105 106 23 24 25 33 -34 35 150 0
104 105 106 23 24 25 33 -34 -35 133 0
104 105 106 23 24 25 -33 34 35 176 0
104 105 106 23 24 25 -33 34 -35 150 0
104 105 106 23 24 25 -33 -34 35 183 0
104 105 106 23 24 25 -33 -34 -35 107 0
104 105 106 23 24 -25 33 34 35 108 0
104 105 106 23 24 -25 33 34 -35 182 0
104 105 106 23 24 -25 33 -34 35 111 0
104 105 106 23 24 -25 33 -34 -35 121 0
104 105 106 23 24 -25 -33 34 35 190 0
104 105 106 23 24 -25 -33 34 -35 212 0
104 105 106 23 24 -25 -33 -34 35 192 0
104 105 106 23 24 -25 -33 -34 -35 149 0
104 105 106 23 -24 25 33 34 35 194 0
104 105 106 23 -24 25 33 34 -35 119 0
104 105 106 23 -24 25 33 -34 35 128 0
104 105 106 23 -24 25 33 -34 -35 148 0
104 105 106 23 -24 25 -33 34 35 109 0
104 105 106 23 -24 25 -33 34 -35 200 0
104 105 106 23 -24 25 -33 -34 35 178 0
104 105 106 23 -24 25 -33 -34 -35 149 0
104 105 106 23 -24 -25 33 34 35 195 0
104 105 106 23 -24 -25 33 34 -35 178 0
104 105 106 23 -24 -25 33 -34 35 157 0
104 105 106 23 -24 -25 33 -34 -35 191 0
104 105 106 23 -24 -25 -33 34 35 122 0
104 105 106 23 -24 -25 -33 34 -35 207 0
104 105 106 23 -24 -25 -33 -34 35 206 0
104 105 106 23 -24 -25 -33 -34 -35 193 0
104 105 106 -23 24 25 33 34 35 140 0
104 105 106 -23 24 25 33 34 -35 189 0
104 105 106 -23 24 25 33 -34 35 130 0
104 105 106 -23 24 25 33 -34 -35 131 0
104 105 106 -23 24 25 -33 34 35 129 0
104 105 106 -23 24 25 -33 34 -35 155 0
104 105 106 -23 24 25 -33 -34 35 152 0
104 105 106 -23 24 25 -33 -34 -35 184 0
104 105 106 -23 24 -25 33 34 35 215 0
104 105 106 -23 24 -25 33 34 -35 150 0
104 105 106 -23 24 -25 33 -34 35 132 0
104 105 106 -23 24 -25 33 -34 -35 138 0
104 105 106 -23 24 -25 -33 34 35 214 0
104 105 106 -23 24 -25 -33 34 -35 121 0
104 105 106 -23 24 -25 -33 -34 35 192 0
104 105 106 -23 24 -25 -33 -34 -35 216 0
104 105 106 -23 -24 25 33 34 35 215 0
104 105 106 -23 -24 25 33 34 -35 217 0
104 105 106 -23 -24 25 33 -34 35 140 0
104 105 106 -23 -24 25 33 -34 -35 177 0
104 105 106 -23 -24 25 -33 34 35 134 0
104 105 106 -23 -24 25 -33 34 -35 184 0
104 105 106 -23 -24 25 -33 -34 35 107 0
104 105 106 -23 -24 25 -33 -34 -35 216 0
104 105 106 -23 -24 -25 33 34 35 107 0
104 105 106 -23 -24 -25 33 34 -35 107 0
104 105 106 -23 -24 -25 33 -34 35 107 0
104 105 106 -23 -24 -25 33 -34 -35 107 0
104 105 106 -23 -24 -25 -33 34 35 216 0
104 105 106 -23 -24 -25 -33 34 -35 107 0
104 105 106 -23 -24 -25 -33 -34 35 107 0
104 105 106 -23 -24 -25 -33 -34 -35 107 0
104 105 -106 23 24 25 33 34 35 107 0
104 105 -106 23 24 25 33 34 -35 107 0
104 105 -106 23 24 25 33 -34 35 150 0
104 105 -106 23 24 25 33 -34 -35 133 0
104 105 -106 23 24 25 -33 34 35 176 0
104 105 -106 23 24 25 -33 34 -35 150 0
104 105 -106 23 24 25 -33 -34 35 183 0
104 105 -106 23 24 25 -33 -34 -35 107 0
104 105 -106 23 24 -25 33 34 35 215 0
104 105 -106 23 24 -25 33 34 -35 110 0
104 105 -106 23 24 -25 33 -34 35 111 0
104 105 -106 23 24 -25 33 -34 -35 121 0
104 105 -106 23 24 -25 -33 34 35 190 0
104 105 -106 23 24 -25 -33 34 -35 212 0
104 105 -106 23 24 -25 -33 -34 35 192 0
104 105 -106 23 24 -25 -33 -34 -35 149 0
104 105 -106 23 -24 25 33 34 35 194 0
104 105 -106 23 -24 25 33 34 -35 112 0
104 105 -106 23 -24 25 33 -34 35 128 0
104 105 -106 23 -24 25 33 -34 -35 148 0
104 105 -106 23 -24 25 -33 34 35 109 0
104 105 -106 23 -24 25 -33 34 -35 200 0
104 105 -106 23 -24 25 -33 -34 35 178 0
104 105 -106 23 -24 25 -33 -34 -35 149 0
104 105 -106 23 -24 -25 33 34 35 164 0
104 105 -106 23 -24 -25 33 34 -35 165 0
104 105 -106 23 -24 -25 33 -34 35 157 0
104 105 -106 23 -24 -25 33 -34 -35 191 0
104 105 -106 23 -24 -25 -33 34 35 122 0
104 105 -106 23 -24 -25 -33 34 -35 207 0
104 105 -106 23 -24 -25 -33 -34 35 206 0
104 105 -106 23 -24 -25 -33 -34 -35 193 0
104 105 -106 -23 24 25 33 34 35 169 0
104 105 -106 -23 24 25 33 34 -35 189 0
104 105 -106 -23 24 25 33 -34 35 130 0
104 105 -106 -23 24 25 33 -34 -35 131 0
104 105 -106 -23 24 25 -33 34 35 129 0
104 105 -106 -23 24 25 -33 34 -35 155 0
104 105 -106 -23 24 25 -33 -34 35 152 0
104 105 -106 -23 24 25 -33 -34 -35 184 0
104 105 -106 -23 24 -25 33 34 35 108 0
104 105 -106 -23 24 -25 33 34 -35 150 0
104 105 -106 -23 24 -25 33 -34 35 132 0
104 105 -106 -23 24 -25 33 -34 -35 138 0
104 105 -106 -23 24 -25 -33 34 35 214 0
104 105 -106 -23 24 -25 -33 34 -35 121 0
104 105 -106 -23 24 -25 -33 -34 35 192 0
104 105 -106 -23 24 -25 -33 -34 -35 216 0
104 105 -106 -23 -24 25 33 34 35 108 0
104 105 -106 -23 -24 25 33 34 -35 217 0
104 105 -106 -23 -24 25 33 -34 35 140 0
104 105 -106 -23 -24 25 33 -34 -35 177 0
104 105 -106 -23 -24 25 -33 34 35 134 0
104 105 -106 -23 -24 25 -33 34 -35 184 0
104 105 -106 -23 -24 25 -33 -34 35 107 0
104 105 -106 -23 -24 25 -33 -34 -35 216 0
104 105 -106 -23 -24 -25 33 34 35 107 0
104 105 -106 -23 -24 -25 33 34 -35 107 0
104 105 -106 -23 -24 -25 33 -34 35 107 0
104 105 -106 -23 -24 -25 33 -34 -35 107 0
104 105 -106 -23 -24 -25 -33 34 35 216 0
104 105 -106 -23 -24 -25 -33 34 -35 107 0
104 105 -106 -23 -24 -25 -33 -34 35 107 0
104 105 -106 -23 -24 -25 -33 -34 -35 107 0
104 -105 106 23 24 25 33 34 35 107 0
104 -105 106 23 24 25 33 34 -35 107 0
104 -105 106 23 24 25 33 -34 35 166 0
104 -105 106 23 24 25 33 -34 -35 113 0
104 -105 106 23 24 25 -33 34 35 176 0
104 -105 106 23 24 25 -33 34 -35 150 0
104 -105 106 23 24 25 -33 -34 35 183 0
104 -105 106 23 24 25 -33 -34 -35 107 0
104 -105 106 23 24 -25 33 34 35 215 0
104 -105 106 23 24 -25 33 34 -35 182 0
104 -105 106 23 24 -25 33 -34 35 115 0
104 -105 106 23 24 -25 33 -34 -35 196 0
104 -105 106 23 24 -25 -33 34 35 190 0
104 -105 106 23 24 -25 -33 34 -35 212 0
104 -105 106 23 24 -25 -33 -34 35 192 0
104 -105 106 23 24 -25 -33 -34 -35 149 0
104 -105 106 23 -24 25 33 34 35 124 0
104 -105 106 23 -24 25 33 34 -35 170 0
104 -105 106 23 -24 25 33 -34 35 171 0
104 -105 106 23 -24 25 33 -34 -35 135 0
104 -105 106 23 -24 25 -33 34 35 109 0
104 -105 106 23 -24 25 -33 34 -35 200 0
104 -105 106 23 -24 25 -33 -34 35 178 0
104 -105 106 23 -24 25 -33 -34 -35 149 0
104 -105 106 23 -24 -25 33 34 35 176 0
104 -105 106 23 -24 -25 33 34 -35 142 0
104 -105 106 23 -24 -25 33 -34 35 188 0
104 -105 106 23 -24 -25 33 -34 -35 191 0
104 -105 106 23 -24 -25 -33 34 35 122 0
104 -105 106 23 -24 -25 -33 34 -35 207 0
104 -105 106 23 -24 -25 -33 -34 35 206 0
104 -105 106 23 -24 -25 -33 -34 -35 193 0
104 -105 106 -23 24 25 33 34 35 140 0
104 -105 106 -23 24 25 33 34 -35 160 0
104 -105 106 -23 24 25 33 -34 35 208 0
104 -105 106 -23 24 25 33 -34 -35 131 0
104 -105 106 -23 24 25 -33 34 35 129 0
104 -105 106 -23 24 25 -33 34 -35 155 0
104 -105 106 -23 24 25 -33 -34 35 152 0
104 -105 106 -23 24 25 -33 -34 -35 184 0
104 -105 106 -23 24 -25 33 34 35 215 0
104 -105 106 -23 24 -25 33 34 -35 166 0
104 -105 106 -23 24 -25 33 -34 35 161 0
104 -105 106 -23 24 -25 33 -34 -35 138 0
104 -105 106 -23 24 -25 -33 34 35 214 0
104 -105 106 -23 24 -25 -33 34 -35 121 0
104 -105 106 -23 24 -25 -33 -34 35 192 0
104 -105 106 -23 24 -25 -33 -34 -35 216 0
104 -105 106 -23 -24 25 33 34 35 215 0
104 -105 106 -23 -24 25 33 34 -35 217 0
104 -105 106 -23 -24 25 33 -34 35 140 0
104 -105 106 -23 -24 25 33 -34 -35 177 0
104 -105 106 -23 -24 25 -33 34 35 134 0
104 -105 106 -23 -24 25 -33 34 -35 184 0
104 -105 106 -23 -24 25 -33 -34 35 107 0
104 -105 106 -23 -24 25 -33 -34 -35 216 0
104 -105 106 -23 -24 -25 33 34 35 107 0
104 -105 106 -23 -24 -25 33 34 -35 107 0
104 -105 106 -23 -24 -25 33 -34 35 107 0
104 -105 106 -23 -24 -25 33 -34 -35 107 0
104 -105 106 -23 -24 -25 -33 34 35 216 0
104 -105 106 -23 -24 -25 -33 34 -35 107 0
104 -105 106 -23 -24 -25 -33 -34 35 107 0
104 -105 106 -23 -24 -25 -33 -34 -35 107 0
104 -105 -106 23 24 25 33 34 35 107 0
104 -105 -106 23 24 25 33 34 -35 107 0
104 -105 -106 23 24 25 33 -34 35 150 0
104 -105 -106 23 24 25 33 -34 -35 113 0
104 -105 -106 23 24 25 -33 34 35 195 0
104 -105 -106 23 24 25 -33 34 -35 150 0
104 -105 -106 23 24 25 -33 -34 35 183 0
104 -105 -106 23 24 25 -33 -34 -35 107 0
104 -105 -106 23 24 -25 33 34 35 215 0
104 -105 -106 23 24 -25 33 34 -35 182 0
104 -105 -106 23 24 -25 33 -34 35 111 0
104 -105 -106 23 24 -25 33 -34 -35 167 0
104 -105 -106 23 24 -25 -33 34 35 186 0
104 -105 -106 23 24 -25 -33 34 -35 212 0
104 -105 -106 23 24 -25 -33 -34 35 192 0
104 -105 -106 23 24 -25 -33 -34 -35 149 0
104 -105 -106 23 -24 25 33 34 35 124 0
104 -105 -106 23 -24 25 33 34 -35 119 0
104 -105 -106 23 -24 25 33 -34 35 209 0
104 -105 -106 23 -24 25 33 -34 -35 172 0
104 -105 -106 23 -24 25 -33 34 35 136 0
104 -105 -106 23 -24 25 -33 34 -35 200 0
104 -105 -106 23 -24 25 -33 -34 35 178 0
104 -105 -106 23 -24 25 -33 -34 -35 149 0
104 -105 -106 23 -24 -25 33 34 35 176 0
104 -105 -106 23 -24 -25 33 34 -35 178 0
104 -105 -106 23 -24 -25 33 -34 35 163 0
104 -105 -106 23 -24 -25 33 -34 -35 211 0
104 -105 -106 23 -24 -25 -33 34 35 122 0
104 -105 -106 23 -24 -25 -33 34 -35 207 0
104 -105 -106 23 -24 -25 -33 -34 35 206 0
104 -105 -106 23 -24 -25 -33 -34 -35 193 0
104 -105 -106 -23 24 25 33 34 35 140 0
104 -105 -106 -23 24 25 33 34 -35 189 0
104 -105 -106 -23 24 25 33 -34 35 153 0
104 -105 -106 -23 24 25 33 -34 -35 114 0
104 -105 -106 -23 24 25 -33 34 35 129 0
104 -105 -106 -23 24 25 -33 34 -35 155 0
104 -105 -106 -23 24 25 -33 -34 35 152 0
104 -105 -106 -23 24 25 -33 -34 -35 184 0
104 -105 -106 -23 24 -25 33 34 35 215 0
104 -105 -106 -23 24 -25 33 34 -35 150 0
104 -105 -106 -23 24 -25 33 -34 35 173 0
104 -105 -106 -23 24 -25 33 -34 -35 162 0
104 -105 -106 -23 24 -25 -33 34 35 214 0
104 -105 -106 -23 24 -25 -33 34 -35 121 0
104 -105 -106 -23 24 -25 -33 -34 35 192 0
104 -105 -106 -23 24 -25 -33 -34 -35 216 0
104 -105 -106 -23 -24 25 33 34 35 215 0
104 -105 -106 -23 -24 25 33 34 -35 210 0
104 -105 -106 -23 -24 25 33 -34 35 213 0
104 -105 -106 -23 -24 25 33 -34 -35 177 0
104 -105 -106 -23 -24 25 -33 34 35 134 0
104 -105 -106 -23 -24 25 -33 34 -35 184 0
104 -105 -106 -23 -24 25 -33 -34 35 107 0
104 -105 -106 -23 -24 25 -33 -34 -35 216 0
104 -105 -106 -23 -24 -25 33 34 35 107 0
104 -105 -106 -23 -24 -25 33 34 -35 107 0
104 -105 -106 -23 -24 -25 33 -34 35 107 0
104 -105 -106 -23 -24 -25 33 -34 -35 107 0
104 -105 -106 -23 -24 -25 -33 34 35 216 0
104 -105 -106 -23 -24 -25 -33 34 -35 107 0
104 -105 -106 -23 -24 -25 -33 -34 35 107 0
104 -105 -106 -23 -24 -25 -33 -34 -35 107 0
-104 105 106 23 24 25 33 34 35 107 0
-104 105 106 23 24 25 33 34 -35 107 0
-104 105 106 23 24 25 33 -34 35 150 0
-104 105 106 23 24 25 33 -34 -35 133 0
-104 105 106 23 24 25 -33 34 35 164 0
-104 105 106 23 24 25 -33 34 -35 166 0
-104 105 106 23 24 25 -33 -34 35 183 0
-104 105 106 23 24 25 -33 -34 -35 107 0
-104 105 106 23 24 -25 33 34 35 215 0
-104 105 106 23 24 -25 33 34 -35 182 0
-104 105 106 23 24 -25 33 -34 35 111 0
-104 105 106 23 24 -25 33 -34 -35 121 0
-104 105 106 23 24 -25 -33 34 35 116 0
-104 105 106 23 24 -25 -33 34 -35 168 0
-104 105 106 23 24 -25 -33 -34 35 192 0
-104 105 106 23 24 -25 -33 -34 -35 149 0
-104 105 106 23 -24 25 33 34 35 124 0
-104 105 106 23 -24 25 33 34 -35 119 0
-104 105 106 23 -24 25 33 -34 35 128 0
-104 105 106 23 -24 25 33 -34 -35 185 0
-104 105 106 23 -24 25 -33 34 35 125 0
-104 105 106 23 -24 25 -33 34 -35 200 0
-104 105 106 23 -24 25 -33 -34 35 178 0
-104 105 106 23 -24 25 -33 -34 -35 149 0
-104 105 106 23 -24 -25 33 34 35 176 0
-104 105 106 23 -24 -25 33 34 -35 178 0
-104 105 106 23 -24 -25 33 -34 35 157 0
-104 105 106 23 -24 -25 33 -34 -35 181 0
-104 105 106 23 -24 -25 -33 34 35 180 0
-104 105 106 23 -24 -25 -33 34 -35 207 0
-104 105 106 23 -24 -25 -33 -34 35 206 0
-104 105 106 23 -24 -25 -33 -34 -35 193 0
-104 105 106 -23 24 25 33 34 35 140 0
-104 105 106 -23 24 25 33 34 -35 189 0
-104 105 106 -23 24 25 33 -34 35 130 0
-104 105 106 -23 24 25 33 -34 -35 146 0
-104 105 106 -23 24 25 -33 34 35 127 0
-104 105 106 -23 24 25 -33 34 -35 155 0
-104 105 106 -23 24 25 -33 -34 35 152 0
-104 105 106 -23 24 25 -33 -34 -35 184 0
-104 105 106 -23 24 -25 33 34 35 215 0
-104 105 106 -23 24 -25 33 34 -35 150 0
-104 105 106 -23 24 -25 33 -34 35 132 0
-104 105 106 -23 24 -25 33 -34 -35 204 0
-104 105 106 -23 24 -25 -33 34 35 187 0
-104 105 106 -23 24 -25 -33 34 -35 121 0
-104 105 106 -23 24 -25 -33 -34 35 192 0
-104 105 106 -23 24 -25 -33 -34 -35 216 0
-104 105 106 -23 -24 25 33 34 35 215 0
-104 105 106 -23 -24 25 33 34 -35 217 0
-104 105 106 -23 -24 25 33 -34 35 140 0
-104 105 106 -23 -24 25 33 -34 -35 117 0
-104 105 106 -23 -24 25 -33 34 35 134 0
-104 105 106 -23 -24 25 -33 34 -35 184 0
-104 105 106 -23 -24 25 -33 -34 35 107 0
-104 105 106 -23 -24 25 -33 -34 -35 216 0
-104 105 106 -23 -24 -25 33 34 35 107 0
-104 105 106 -23 -24 -25 33 34 -35 107 0
-104 105 106 -23 -24 -25 33 -34 35 107 0
-104 105 106 -23 -24 -25 33 -34 -35 107 0
-104 105 106 -23 -24 -25 -33 34 35 216 0
-104 105 106 -23 -24 -25 -33 34 -35 107 0
-104 105 106 -23 -24 -25 -33 -34 35 107 0
-104 105 106 -23 -24 -25 -33 -34 -35 107 0
-104 105 -106 23 24 25 33 34 35 107 0
-104 105 -106 23 24 25 33 34 -35 107 0
-104 105 -106 23 24 25 33 -34 35 150 0
-104 105 -106 23 24 25 33 -34 -35 133 0
-104 105 -106 23 24 25 -33 34 35 176 0
-104 105 -106 23 24 25 -33 34 -35 150 0
-104 105 -106 23 24 25 -33 -34 35 158 0
-104 105 -106 23 24 25 -33 -34 -35 107 0
-104 105 -106 23 24 -25 33 34 35 215 0
-104 105 -106 23 24 -25 33 34 -35 182 0
-104 105 -106 23 24 -25 33 -34 35 111 0
-104 105 -106 23 24 -25 33 -34 -35 121 0
-104 105 -106 23 24 -25 -33 34 35 190 0
-104 105 -106 23 24 -25 -33 34 -35 168 0
-104 105 -106 23 24 -25 -33 -34 35 174 0
-104 105 -106 23 24 -25 -33 -34 -35 149 0
-104 105 -106 23 -24 25 33 34 35 124 0
-104 105 -106 23 -24 25 33 34 -35 119 0
-104 105 -106 23 -24 25 33 -34 35 128 0
-104 105 -106 23 -24 25 33 -34 -35 148 0
-104 105 -106 23 -24 25 -33 34 35 123 0
-104 105 -106 23 -24 25 -33 34 -35 205 0
-104 105 -106 23 -24 25 -33 -34 35 197 0
-104 105 -106 23 -24 25 -33 -34 -35 149 0
-104 105 -106 23 -24 -25 33 34 35 176 0
-104 105 -106 23 -24 -25 33 34 -35 178 0
-104 105 -106 23 -24 -25 33 -34 35 157 0
-104 105 -106 23 -24 -25 33 -34 -35 191 0
-104 105 -106 23 -24 -25 -33 34 35 151 0
-104 105 -106 23 -24 -25 -33 34 -35 201 0
-104 105 -106 23 -24 -25 -33 -34 35 206 0
-104 105 -106 23 -24 -25 -33 -34 -35 193 0
-104 105 -106 -23 24 25 33 34 35 140 0
-104 105 -106 -23 24 25 33 34 -35 189 0
-104 105 -106 -23 24 25 33 -34 35 130 0
-104 105 -106 -23 24 25 33 -34 -35 131 0
-104 105 -106 -23 24 25 -33 34 35 218 0
-104 105 -106 -23 24 25 -33 34 -35 175 0
-104 105 -106 -23 24 25 -33 -34 35 152 0
-104 105 -106 -23 24 25 -33 -34 -35 184 0
-104 105 -106 -23 24 -25 33 34 35 215 0
-104 105 -106 -23 24 -25 33 34 -35 150 0
-104 105 -106 -23 24 -25 33 -34 35 132 0
-104 105 -106 -23 24 -25 33 -34 -35 162 0
-104 105 -106 -23 24 -25 -33 34 35 198 0
-104 105 -106 -23 24 -25 -33 34 -35 154 0
-104 105 -106 -23 24 -25 -33 -34 35 192 0
-104 105 -106 -23 24 -25 -33 -34 -35 216 0
-104 105 -106 -23 -24 25 33 34 35 215 0
-104 105 -106 -23 -24 25 33 34 -35 217 0
-104 105 -106 -23 -24 25 33 -34 35 140 0
-104 105 -106 -23 -24 25 33 -34 -35 143 0
-104 105 -106 -23 -24 25 -33 34 35 118 0
-104 105 -106 -23 -24 25 -33 34 -35 184 0
-104 105 -106 -23 -24 25 -33 -34 35 107 0
-104 105 -106 -23 -24 25 -33 -34 -35 216 0
-104 105 -106 -23 -24 -25 33 34 35 107 0
-104 105 -106 -23 -24 -25 33 34 -35 107 0
-104 105 -106 -23 -24 -25 33 -34 35 107 0
-104 105 -106 -23 -24 -25 33 -34 -35 107 0
-104 105 -106 -23 -24 -25 -33 34 35 216 0
-104 105 -106 -23 -24 -25 -33 34 -35 107 0
-104 105 -106 -23 -24 -25 -33 -34 35 107 0
-104 105 -106 -23 -24 -25 -33 -34 -35 107 0
-104 -105 106 23 24 25 33 34 35 107 0
-104 -105 106 23 24 25 33 34 -35 107 0
-104 -105 106 23 24 25 33 -34 35 150 0
-104 -105 106 23 24 25 33 -34 -35 133 0
-104 -105 106 23 24 25 -33 34 35 176 0
-104 -105 106 23 24 25 -33 34 -35 150 0
-104 -105 106 23 24 25 -33 -34 35 183 0
-104 -105 106 23 24 25 -33 -34 -35 107 0
-104 -105 106 23 24 -25 33 34 35 215 0
-104 -105 106 23 24 -25 33 34 -35 182 0
-104 -105 106 23 24 -25 33 -34 35 111 0
-104 -105 106 23 24 -25 33 -34 -35 121 0
-104 -105 106 23 24 -25 -33 34 35 190 0
-104 -105 106 23 24 -25 -33 34 -35 212 0
-104 -105 106 23 24 -25 -33 -34 35 203 0
-104 -105 106 23 24 -25 -33 -34 -35 202 0
-104 -105 106 23 -24 25 33 34 35 124 0
-104 -105 106 23 -24 25 33 34 -35 119 0
-104 -105 106 23 -24 25 33 -34 35 128 0
-104 -105 106 23 -24 25 33 -34 -35 148 0
-104 -105 106 23 -24 25 -33 34 35 109 0
-104 -105 106 23 -24 25 -33 34 -35 200 0
-104 -105 106 23 -24 25 -33 -34 35 139 0
-104 -105 106 23 -24 25 -33 -34 -35 149 0
-104 -105 106 23 -24 -25 33 34 35 176 0
-104 -105 106 23 -24 -25 33 34 -35 178 0
-104 -105 106 23 -24 -25 33 -34 35 157 0
-104 -105 106 23 -24 -25 33 -34 -35 191 0
-104 -105 106 23 -24 -25 -33 34 35 122 0
-104 -105 106 23 -24 -25 -33 34 -35 147 0
-104 -105 106 23 -24 -25 -33 -34 35 179 0
-104 -105 106 23 -24 -25 -33 -34 -35 159 0
-104 -105 106 -23 24 25 33 34 35 140 0
-104 -105 106 -23 24 25 33 34 -35 189 0
-104 -105 106 -23 24 25 33 -34 35 130 0
-104 -105 106 -23 24 25 33 -34 -35 131 0
-104 -105 106 -23 24 25 -33 34 35 129 0
-104 -105 106 -23 24 25 -33 34 -35 144 0
-104 -105 106 -23 24 25 -33 -34 35 120 0
-104 -105 106 -23 24 25 -33 -34 -35 184 0
-104 -105 106 -23 24 -25 33 34 35 215 0
-104 -105 106 -23 24 -25 33 34 -35 150 0
-104 -105 106 -23 24 -25 33 -34 35 132 0
-104 -105 106 -23 24 -25 33 -34 -35 138 0
-104 -105 106 -23 24 -25 -33 34 35 214 0
-104 -105 106 -23 24 -25 -33 34 -35 137 0
-104 -105 106 -23 24 -25 -33 -34 35 199 0
-104 -105 106 -23 24 -25 -33 -34 -35 216 0
-104 -105 106 -23 -24 25 33 34 35 215 0
-104 -105 106 -23 -24 25 33 34 -35 217 0
-104 -105 106 -23 -24 25 33 -34 35 140 0
-104 -105 106 -23 -24 25 33 -34 -35 177 0
-104 -105 106 -23 -24 25 -33 34 35 126 0
-104 -105 106 -23 -24 25 -33 34 -35 156 0
-104 -105 106 -23 -24 25 -33 -34 35 107 0
-104 -105 106 -23 -24 25 -33 -34 -35 216 0
-104 -105 106 -23 -24 -25 33 34 35 107 0
-104 -105 106 -23 -24 -25 33 34 -35 107 0
-104 -105 106 -23 -24 -25 33 -34 35 107 0
-104 -105 106 -23 -24 -25 33 -34 -35 107 0
-104 -105 106 -23 -24 -25 -33 34 35 219 0
-104 -105 106 -23 -24 -25 -33 34 -35 107 0
-104 -105 106 -23 -24 -25 -33 -34 35 107 0
-104 -105 106 -23 -24 -25 -33 -34 -35 107 0
-104 -105 -106 23 24 25 33 34 35 107 0
-104 -105 -106 23 24 25 33 34 -35 107 0
-104 -105 -106 23 24 25 33 -34 35 150 0
-104 -105 -106 23 24 25 33 -34 -35 133 0
-104 -105 -106 23 24 25 -33 34 35 176 0
-104 -105 -106 23 24 25 -33 34 -35 150 0
-104 -105 -106 23 24 25 -33 -34 35 183 0
-104 -105 -106 23 24 25 -33 -34 -35 107 0
-104 -105 -106 23 24 -25 33 34 35 215 0
-104 -105 -106 23 24 -25 33 34 -35 182 0
-104 -105 -106 23 24 -25 33 -34 35 111 0
-104 -105 -106 23 24 -25 33 -34 -35 121 0
-104 -105 -106 23 24 -25 -33 34 35 190 0
-104 -105 -106 23 24 -25 -33 34 -35 212 0
-104 -105 -106 23 24 -25 -33 -34 35 192 0
-104 -105 -106 23 24 -25 -33 -34 -35 149 0
-104 -105 -106 23 -24 25 33 34 35 124 0
-104 -105 -106 23 -24 25 33 34 -35 119 0
-104 -105 -106 23 -24 25 33 -34 35 128 0
-104 -105 -106 23 -24 25 33 -34 -35 148 0
-104 -105 -106 23 -24 25 -33 34 35 109 0
-104 -105 -106 23 -24 25 -33 34 -35 200 0
-104 -105 -106 23 -24 25 -33 -34 35 178 0
-104 -105 -106 23 -24 25 -33 -34 -35 202 0
-104 -105 -106 23 -24 -25 33 34 35 176 0
-104 -105 -106 23 -24 -25 33 34 -35 178 0
-104 -105 -106 23 -24 -25 33 -34 35 157 0
-104 -105 -106 23 -24 -25 33 -34 -35 191 0
-104 -105 -106 23 -24 -25 -33 34 35 122 0
-104 -105 -106 23 -24 -25 -33 34 -35 207 0
-104 -105 -106 23 -24 -25 -33 -34 35 206 0
-104 -105 -106 23 -24 -25 -33 -34 -35 141 0
-104 -105 -106 -23 24 25 33 34 35 140 0
-104 -105 -106 -23 24 25 33 34 -35 189 0
-104 -105 -106 -23 24 25 33 -34 35 130 0
-104 -105 -106 -23 24 25 33 -34 -35 131 0
-104 -105 -106 -23 24 25 -33 34 35 129 0
-104 -105 -106 -23 24 25 -33 34 -35 155 0
-104 -105 -106 -23 24 25 -33 -34 35 145 0
-104 -105 -106 -23 24 25 -33 -34 -35 156 0
-104 -105 -106 -23 24 -25 33 34 35 215 0
-104 -105 -106 -23 24 -25 33 34 -35 150 0
-104 -105 -106 -23 24 -25 33 -34 35 132 0
-104 -105 -106 -23 24 -25 33 -34 -35 138 0
-104 -105 -106 -23 24 -25 -33 34 35 214 0
-104 -105 -106 -23 24 -25 -33 34 -35 121 0
-104 -105 -106 -23 24 -25 -33 -34 35 199 0
-104 -105 -106 -23 24 -25 -33 -34 -35 219 0
-104 -105 -106 -23 -24 25 33 34 35 215 0
-104 -105 -106 -23 -24 25 33 34 -35 217 0
-104 -105 -106 -23 -24 25 33 -34 35 140 0
-104 -105 -106 -23 -24 25 33 -34 -35 177 0
-104 -105 -106 -23 -24 25 -33 34 35 134 0
-104 -105 -106 -23 -24 25 -33 34 -35 184 0
-104 -105 -106 -23 -24 25 -33 -34 35 107 0
-104 -105 -106 -23 -24 25 -33 -34 -35 219 0
-104 -105 -106 -23 -24 -25 33 34 35 107 0
-104 -105 -106 -23 -24 -25 33 34 -35 107 0
-104 -105 -106 -23 -24 -25 33 -34 35 107 0
-104 -105 -106 -23 -24 -25 33 -34 -35 107 0
-104 -105 -106 -23 -24 -25 -33 34 35 216 0
-104 -105 -106 -23 -24 -25 -33 34 -35 107 0
-104 -105 -106 -23 -24 -25 -33 -34 35 107 0
-104 -105 -106 -23 -24 -25 -33 -34 -35 107 0
